[main]	Category	targetskill_index	slot_count
0	1	336	10
1	2	338	10
2	3	334	10
3	4	337	10

[point_main]	min_time	max_time	reward_point	total_point
0	0	300	1	1
1	300	600	1	2
2	600	900	1	3
3	900	1200	1	4
4	1200	1500	1	5
5	1500	1800	1	6
6	1800	2100	1	7
7	2100	2400	1	8
8	2400	2700	1	9
9	2700	3000	1	10
10	3000	3300	1	11
11	3300	3600	1	12
12	3600	3900	1	13
13	3900	4200	1	14
14	4200	4500	1	15
15	4500	4800	1	16
16	4800	5100	1	17
17	5100	5400	1	18
18	5400	5700	1	19
19	5700	6000	1	20
20	6000	6300	1	21
21	6300	6600	1	22
22	6600	6900	1	23
23	6900	7200	1	24
24	7200	7500	1	25
25	7500	7800	1	26
26	7800	8100	1	27
27	8100	8400	1	28
28	8400	8700	1	29
29	8700	9000	1	30
30	9000	9300	1	31
31	9300	9600	1	32
32	9600	9900	1	33
33	9900	10200	1	34
34	10200	10500	1	35
35	10500	10800	1	36
36	10800	11100	1	37
37	11100	11400	1	38
38	11400	11700	1	39
39	11700	12000	1	40
40	12000	12300	1	41
41	12300	12600	1	42
42	12600	12900	1	43
43	12900	13200	1	44
44	13200	13500	1	45
45	13500	13800	1	46
46	13800	14100	1	47
47	14100	14400	1	48
48	14400	14700	1	49
49	14700	15000	1	50
50	15000	15300	1	51
51	15300	15600	1	52
52	15600	15900	1	53
53	15900	16200	1	54
54	16200	16500	1	55
55	16500	16800	1	56
56	16800	17100	1	57
57	17100	17400	1	58
58	17400	17700	1	59
59	17700	18000	1	60
60	18000	18300	1	61
61	18300	18600	1	62
62	18600	18900	1	63
63	18900	19200	1	64
64	19200	19500	1	65
65	19500	19800	1	66
66	19800	20100	1	67
67	20100	20400	1	68
68	20400	20700	1	69
69	20700	21000	1	70
70	21000	21300	1	71
71	21300	21600	1	72
72	21600	21900	1	73
73	21900	22200	1	74
74	22200	22500	1	75
75	22500	22800	1	76
76	22800	23100	1	77
77	23100	23400	1	78
78	23400	23700	1	79
79	23700	24000	1	80
80	24000	24300	1	81
81	24300	24600	1	82
82	24600	24900	1	83
83	24900	25200	1	84
84	25200	25500	1	85
85	25500	25800	1	86
86	25800	26100	1	87
87	26100	26400	1	88
88	26400	26700	1	89
89	26700	27000	1	90
90	27000	27300	1	91
91	27300	27600	1	92
92	27600	27900	1	93
93	27900	28200	1	94
94	28200	28500	1	95
95	28500	28800	1	96
96	28800	29100	1	97
97	29100	29400	1	98
98	29400	29700	1	99
99	29700	30000	1	100
100	30000	30300	1	101
101	30300	30600	1	102
102	30600	30900	1	103
103	30900	31200	1	104
104	31200	31500	1	105
105	31500	31800	1	106
106	31800	32100	1	107
107	32100	32400	1	108
108	32400	32700	1	109
109	32700	33000	1	110
110	33000	33300	1	111
111	33300	33600	1	112
112	33600	33900	1	113
113	33900	34200	1	114
114	34200	34500	1	115
115	34500	34800	1	116
116	34800	35100	1	117
117	35100	35400	1	118
118	35400	35700	1	119
119	35700	36000	1	120
120	36000	36300	1	121
121	36300	36600	1	122
122	36600	36900	1	123
123	36900	37200	1	124
124	37200	37500	1	125
125	37500	37800	1	126
126	37800	38100	1	127
127	38100	38400	1	128
128	38400	38700	1	129
129	38700	39000	1	130
130	39000	39300	1	131
131	39300	39600	1	132
132	39600	39900	1	133
133	39900	40200	1	134
134	40200	40500	1	135
135	40500	40800	1	136
136	40800	41100	1	137
137	41100	41400	1	138
138	41400	41700	1	139
139	41700	42000	1	140
140	42000	42300	1	141
141	42300	42600	1	142
142	42600	42900	1	143
143	42900	43200	1	144
144	43200	43500	1	145
145	43500	43800	1	146
146	43800	44100	1	147
147	44100	44400	1	148
148	44400	44700	1	149
149	44700	45000	1	150
150	45000	45300	1	151
151	45300	45600	1	152
152	45600	45900	1	153
153	45900	46200	1	154
154	46200	46500	1	155
155	46500	46800	1	156
156	46800	47100	1	157
157	47100	47400	1	158
158	47400	47700	1	159
159	47700	48000	1	160
160	48000	48300	1	161
161	48300	48600	1	162
162	48600	48900	1	163
163	48900	49200	1	164
164	49200	49500	1	165
165	49500	49800	1	166
166	49800	50100	1	167
167	50100	50400	1	168
168	50400	50700	1	169
169	50700	51000	1	170
170	51000	51300	1	171
171	51300	51600	1	172
172	51600	51900	1	173
173	51900	52200	1	174
174	52200	52500	1	175
175	52500	52800	1	176
176	52800	53100	1	177
177	53100	53400	1	178
178	53400	53700	1	179
179	53700	54000	1	180
180	54000	54300	1	181
181	54300	54600	1	182
182	54600	54900	1	183
183	54900	55200	1	184
184	55200	55500	1	185
185	55500	55800	1	186
186	55800	56100	1	187
187	56100	56400	1	188
188	56400	56700	1	189
189	56700	57000	1	190
190	57000	57300	1	191
191	57300	57600	1	192
192	57600	57900	1	193
193	57900	58200	1	194
194	58200	58500	1	195
195	58500	58800	1	196
196	58800	59100	1	197
197	59100	59400	1	198
198	59400	59700	1	199
199	59700	60000	1	200
200	60000	60300	1	201
201	60300	60600	1	202
202	60600	60900	1	203
203	60900	61200	1	204
204	61200	61500	1	205
205	61500	61800	1	206
206	61800	62100	1	207
207	62100	62400	1	208
208	62400	62700	1	209
209	62700	63000	1	210
210	63000	63300	1	211
211	63300	63600	1	212
212	63600	63900	1	213
213	63900	64200	1	214
214	64200	64500	1	215
215	64500	64800	1	216
216	64800	65100	1	217
217	65100	65400	1	218
218	65400	65700	1	219
219	65700	66000	1	220
220	66000	66300	1	221
221	66300	66600	1	222
222	66600	66900	1	223
223	66900	67200	1	224
224	67200	67500	1	225
225	67500	67800	1	226
226	67800	68100	1	227
227	68100	68400	1	228
228	68400	68700	1	229
229	68700	69000	1	230

[slot_main]	category	slot_index
0	1	1
1	1	2
2	1	3
3	1	4
4	1	5
5	1	6
6	1	7
7	1	8
8	1	9
9	1	10
10	2	1
11	2	2
12	2	3
13	2	4
14	2	5
15	2	6
16	2	7
17	2	8
18	2	9
19	2	10
20	3	1
21	3	2
22	3	3
23	3	4
24	3	5
25	3	6
26	3	7
27	3	8
28	3	9
29	3	10
30	4	1
31	4	2
32	4	3
33	4	4
34	4	5
35	4	6
36	4	7
37	4	8
38	4	9
39	4	10

[slot_opencondition]	category	slot_index	open_condition_slot	open_condition_level
0	1	1	0	0
1	1	2	1	5
2	1	3	1	5
3	1	4	2,3	10
4	1	5	2,3	10
5	1	6	2,3	10
6	1	7	4,5,6	10
7	1	8	4,5,6	10
8	1	9	4,5,6	10
9	1	10	7,8,9	10
10	2	1	0	0
11	2	2	1	5
12	2	3	1	5
13	2	4	2,3	10
14	2	5	2,3	10
15	2	6	2,3	10
16	2	7	4,5,6	10
17	2	8	4,5,6	10
18	2	9	4,5,6	10
19	2	10	7,8,9	10
20	3	1	0	0
21	3	2	1	5
22	3	3	1	5
23	3	4	2,3	10
24	3	5	2,3	10
25	3	6	2,3	10
26	3	7	4,5,6	10
27	3	8	4,5,6	10
28	3	9	4,5,6	10
29	3	10	7,8,9	10
30	4	1	0	0
31	4	2	1	5
32	4	3	1	5
33	4	4	2,3	10
34	4	5	2,3	10
35	4	6	2,3	10
36	4	7	4,5,6	10
37	4	8	4,5,6	10
38	4	9	4,5,6	10
39	4	10	7,8,9	10

[open_material]	category	slot_index	order	material_lndex	need_count
1	1	1	0	33556182	1
2	1	1	1	33556879	10
3	1	2	0	33556182	1
4	1	2	1	33556879	20
5	1	3	0	33556182	1
6	1	3	1	33556879	20
7	1	4	0	33556182	2
8	1	4	1	33556879	30
9	1	5	0	33556182	2
10	1	5	1	33556879	30
11	1	6	0	33556182	2
12	1	6	1	33556879	30
13	1	7	0	33556182	2
14	1	7	1	33556879	30
15	1	8	0	33556182	2
16	1	8	1	33556879	30
17	1	9	0	33556182	2
18	1	9	1	33556879	30
19	1	10	0	33556182	4
20	1	10	1	33556879	50
21	2	1	0	33556184	1
22	2	1	1	33556879	10
23	2	2	0	33556184	1
24	2	2	1	33556879	20
25	2	3	0	33556184	1
26	2	3	1	33556879	20
27	2	4	0	33556184	2
28	2	4	1	33556879	30
29	2	5	0	33556184	2
30	2	5	1	33556879	30
31	2	6	0	33556184	2
32	2	6	1	33556879	30
33	2	7	0	33556184	2
34	2	7	1	33556879	30
35	2	8	0	33556184	2
36	2	8	1	33556879	30
37	2	9	0	33556184	2
38	2	9	1	33556879	30
39	2	10	0	33556184	4
40	2	10	1	33556879	50
41	3	1	0	33556181	1
42	3	1	1	33556879	10
43	3	2	0	33556181	1
44	3	2	1	33556879	20
45	3	3	0	33556181	1
46	3	3	1	33556879	20
47	3	4	0	33556181	2
48	3	4	1	33556879	30
49	3	5	0	33556181	2
50	3	5	1	33556879	30
51	3	6	0	33556181	2
52	3	6	1	33556879	30
53	3	7	0	33556181	2
54	3	7	1	33556879	30
55	3	8	0	33556181	2
56	3	8	1	33556879	30
57	3	9	0	33556181	2
58	3	9	1	33556879	30
59	3	10	0	33556181	4
60	3	10	1	33556879	50
61	4	1	0	33556183	1
62	4	1	1	33556879	10
63	4	2	0	33556183	1
64	4	2	1	33556879	20
65	4	3	0	33556183	1
66	4	3	1	33556879	20
67	4	4	0	33556183	2
68	4	4	1	33556879	30
69	4	5	0	33556183	2
70	4	5	1	33556879	30
71	4	6	0	33556183	2
72	4	6	1	33556879	30
73	4	7	0	33556183	2
74	4	7	1	33556879	30
75	4	8	0	33556183	2
76	4	8	1	33556879	30
77	4	9	0	33556183	2
78	4	9	1	33556879	30
79	4	10	0	33556183	4
80	4	10	1	33556879	50

[option_value]	category	slot_index	level	need_point	forceid	value	value_type
1	1	1	1	1	113	1	1
2	1	1	2	1	113	2	1
3	1	1	3	1	113	3	1
4	1	1	4	1	113	4	1
5	1	1	5	1	113	5	1
6	1	2	1	1	113	1	1
7	1	2	2	1	113	2	1
8	1	2	3	2	113	3	1
9	1	2	4	2	113	4	1
10	1	2	5	2	113	5	1
11	1	3	1	1	71	6	1
12	1	3	2	1	71	12	1
13	1	3	3	2	71	18	1
14	1	3	4	2	71	24	1
15	1	3	5	2	71	30	1
16	1	4	1	3	128	2	2
17	1	4	2	3	128	4	2
18	1	4	3	3	128	7	2
19	1	5	1	2	71	5	1
20	1	5	2	2	71	10	1
21	1	5	3	3	71	15	1
22	1	5	4	3	71	25	1
23	1	5	5	3	71	40	1
24	1	6	1	2	127	1	2
25	1	6	2	2	127	2	2
26	1	6	3	3	127	3	2
27	1	6	4	3	127	4	2
28	1	6	5	3	127	6	2
29	1	7	1	4	127	2	2
30	1	7	2	4	127	4	2
31	1	7	3	4	127	8	2
32	1	8	1	3	73	2	1
33	1	8	2	3	73	5	1
34	1	8	3	4	73	8	1
35	1	8	4	4	73	11	1
36	1	8	5	4	73	15	1
37	1	9	1	3	139	1	1
38	1	9	2	3	139	3	1
39	1	9	3	4	139	5	1
40	1	9	4	4	139	7	1
41	1	9	5	4	139	10	1
42	1	10	1	8	138	4	1
43	2	1	1	1	113	1	1
44	2	1	2	1	113	2	1
45	2	1	3	1	113	3	1
46	2	1	4	1	113	4	1
47	2	1	5	1	113	5	1
48	2	2	1	1	113	1	1
49	2	2	2	1	113	2	1
50	2	2	3	2	113	3	1
51	2	2	4	2	113	4	1
52	2	2	5	2	113	5	1
53	2	3	1	1	79	10	1
54	2	3	2	1	79	20	1
55	2	3	3	2	79	30	1
56	2	3	4	2	79	40	1
57	2	3	5	2	79	50	1
58	2	4	1	2	79	10	1
59	2	4	2	2	79	20	1
60	2	4	3	3	79	35	1
61	2	4	4	3	79	55	1
62	2	4	5	3	79	80	1
63	2	5	1	3	158	2	2
64	2	5	2	3	158	5	2
65	2	5	3	3	158	8	2
66	2	6	1	2	163	1	1
67	2	6	2	2	163	2	1
68	2	6	3	3	163	3	1
69	2	6	4	3	163	5	1
70	2	6	5	3	163	8	1
71	2	7	1	3	163	2	1
72	2	7	2	3	163	4	1
73	2	7	3	4	163	6	1
74	2	7	4	4	163	9	1
75	2	7	5	4	163	12	1
76	2	8	1	3	158	1	2
77	2	8	2	3	158	3	2
78	2	8	3	4	158	5	2
79	2	8	4	4	158	7	2
80	2	8	5	4	158	10	2
81	2	9	1	4	153	2	2
82	2	9	2	4	153	5	2
83	2	9	3	4	153	9	2
84	2	10	1	8	138	4	1
85	3	1	1	1	72	6	1
86	3	1	2	1	72	12	1
87	3	1	3	1	72	18	1
88	3	1	4	1	72	24	1
89	3	1	5	1	72	30	1
90	3	2	1	1	75	6	1
91	3	2	2	1	75	12	1
92	3	2	3	2	75	18	1
93	3	2	4	2	75	24	1
94	3	2	5	2	75	30	1
95	3	3	1	1	81	2	1
96	3	3	2	1	81	4	1
97	3	3	3	2	81	6	1
98	3	3	4	2	81	8	1
99	3	3	5	2	81	10	1
100	3	4	1	3	98	3	2
101	3	4	2	3	98	6	2
102	3	4	3	3	98	10	2
103	3	5	1	2	72	5	1
104	3	5	2	2	72	10	1
105	3	5	3	3	72	15	1
106	3	5	4	3	72	25	1
107	3	5	5	3	72	40	1
108	3	6	1	2	75	5	1
109	3	6	2	2	75	15	1
110	3	6	3	3	75	25	1
111	3	6	4	3	75	40	1
112	3	6	5	3	75	55	1
113	3	7	1	4	81	4	1
114	3	7	2	4	81	9	1
115	3	7	3	4	81	15	1
116	3	8	1	3	98	2	2
117	3	8	2	3	98	4	2
118	3	8	3	4	98	7	2
119	3	8	4	4	98	10	2
120	3	8	5	4	98	14	2
121	3	9	1	3	112	2	2
122	3	9	2	3	112	4	2
123	3	9	3	4	112	6	2
124	3	9	4	4	112	8	2
125	3	9	5	4	112	11	2
126	3	10	1	8	138	4	1
127	4	1	1	1	155	12	1
128	4	1	2	1	155	24	1
129	4	1	3	1	155	36	1
130	4	1	4	1	155	48	1
131	4	1	5	1	155	60	1
132	4	2	1	1	36	10	1
133	4	2	2	1	36	20	1
134	4	2	3	2	36	30	1
135	4	2	4	2	36	40	1
136	4	2	5	2	36	50	1
137	4	3	1	1	1	5	1
138	4	3	2	1	1	10	1
139	4	3	3	2	1	15	1
140	4	3	4	2	1	20	1
141	4	3	5	2	1	25	1
142	4	4	1	3	156	4	1
143	4	4	2	3	156	9	1
144	4	4	3	3	156	15	1
145	4	5	1	2	36	15	1
146	4	5	2	2	36	30	1
147	4	5	3	3	36	50	1
148	4	5	4	3	36	70	1
149	4	5	5	3	36	100	1
150	4	6	1	2	157	1	1
151	4	6	2	2	157	3	1
152	4	6	3	3	157	5	1
153	4	6	4	3	157	7	1
154	4	6	5	3	157	10	1
155	4	7	1	3	156	4	1
156	4	7	2	3	156	8	1
157	4	7	3	4	156	13	1
158	4	7	4	4	156	18	1
159	4	7	5	4	156	25	1
160	4	8	1	3	155	20	1
161	4	8	2	3	155	40	1
162	4	8	3	4	155	60	1
163	4	8	4	4	155	90	1
164	4	8	5	4	155	120	1
165	4	9	1	4	157	5	1
166	4	9	2	4	157	12	1
167	4	9	3	4	157	20	1
168	4	10	1	8	138	4	1

[bonus_condition]	category	condition_index
0	1	10
1	2	10
2	3	10
3	4	10

[bonus_value]	category	slot_index	forceid	value	value_type
1	1	1	113	2	1
2	1	2	113	3	1
3	1	3	71	5	2
4	1	4	128	1	2
5	1	5	71	5	1
6	1	6	127	1	2
7	1	7	127	1	2
8	1	8	73	5	1
9	1	9	139	5	1
10	2	1	113	2	1
11	2	2	113	3	1
12	2	3	79	10	1
13	2	4	79	10	1
14	2	5	158	1	2
15	2	6	163	2	1
16	2	7	163	3	1
17	2	8	158	1	2
18	2	9	153	1	2
19	3	1	72	5	1
20	3	2	75	5	1
21	3	3	81	2	1
22	3	4	98	1	2
23	3	5	72	5	1
24	3	6	75	10	1
25	3	7	81	3	1
26	3	8	98	1	1
27	3	9	112	1	2
28	4	1	155	10	1
29	4	2	36	5	1
30	4	3	1	15	1
31	4	4	156	5	1
32	4	5	36	5	1
33	4	6	157	5	1
34	4	7	156	5	1
35	4	8	155	10	1
36	4	9	157	5	1

